<number of tasks>
30

<cycle time>
41

<task times>
1 8
2 7
3 19
4 10
5 2
6 6
7 14
8 10
9 1
10 4
11 14
12 15
13 5
14 12
15 9
16 10
17 2
18 10
19 18
20 16
21 21
22 14
23 16
24 7
25 17
26 9
27 25
28 7
29 14
30 2

<precedence relations>
1,4
1,5
2,11
2,12
3,16
3,17
4,7
5,6
6,7
7,8
8,9
9,26
10,24
12,13
13,14
14,15
14,20
15,22
16,20
17,18
18,19
20,21
20,24
21,22
22,23
23,27
24,25
25,26
26,27
27,28
27,29
29,30

<setup times forward>
1,2:3
1,3:3
1,4:2
1,5:4
1,10:4
1,12:3
1,15:4
1,16:4
1,18:4
1,19:6
1,20:2
1,21:2
1,22:5
1,23:3
1,24:2
1,25:5
2,1:3
2,4:1
2,5:1
2,6:1
2,7:1
2,8:1
2,9:2
2,10:1
2,11:3
2,16:1
2,17:3
2,18:1
2,19:3
3,1:3
3,4:1
3,5:1
3,6:1
3,7:1
3,8:1
3,9:2
3,10:1
3,11:3
3,13:3
3,14:3
3,15:1
3,16:1
3,17:3
4,2:1
4,3:1
4,5:2
4,6:2
4,10:2
4,11:2
4,12:1
4,13:2
4,14:2
4,15:2
4,16:2
4,17:2
4,18:2
4,19:4
4,22:3
4,23:1
4,25:3
5,2:1
5,3:1
5,4:2
5,11:4
5,12:1
5,13:4
5,14:4
5,17:4
5,19:2
5,20:2
5,21:2
5,22:1
5,23:1
5,24:2
5,25:1
6,2:1
6,3:1
6,4:2
6,7:2
6,11:4
6,12:1
6,13:4
6,14:4
6,17:4
6,19:2
6,20:2
6,21:2
6,22:1
6,23:1
6,24:2
6,25:1
7,2:1
7,3:1
7,10:2
7,11:2
7,12:1
7,13:2
7,14:2
7,15:2
7,16:2
7,17:2
7,18:2
7,19:4
7,22:3
7,23:1
7,25:3
8,2:1
8,3:1
8,9:3
8,10:2
8,11:2
8,12:1
8,13:2
8,14:2
8,15:2
8,16:2
8,17:2
8,18:2
8,19:4
8,22:3
8,23:1
8,25:3
9,2:2
9,3:2
9,10:1
9,11:5
9,12:2
9,13:5
9,14:5
9,15:1
9,16:1
9,17:5
9,18:1
9,19:1
9,20:3
9,21:3
9,23:2
9,24:3
10,1:4
10,2:1
10,3:1
10,4:2
10,7:2
10,8:2
10,9:1
10,11:4
10,12:1
10,13:4
10,14:4
10,17:4
10,19:2
10,20:2
10,21:2
10,22:1
10,23:1
10,24:2
11,3:3
11,4:2
11,5:4
11,6:4
11,7:2
11,8:2
11,9:5
11,10:4
11,12:3
11,15:4
11,16:4
11,18:4
11,19:6
11,20:2
11,21:2
11,22:5
11,23:3
11,24:2
11,25:5
11,26:5
11,27:3
11,28:6
11,29:6
11,30:6
12,1:3
12,4:1
12,5:1
12,6:1
12,7:1
12,8:1
12,9:2
12,10:1
12,11:3
12,13:3
12,16:1
12,17:3
12,18:1
12,19:3
13,3:3
13,4:2
13,5:4
13,6:4
13,7:2
13,8:2
13,9:5
13,10:4
13,16:4
13,18:4
13,19:6
14,3:3
14,4:2
14,5:4
14,6:4
14,7:2
14,8:2
14,9:5
14,10:4
14,15:4
14,16:4
14,18:4
14,19:6
14,20:2
15,1:4
15,3:1
15,4:2
15,7:2
15,8:2
15,9:1
15,11:4
15,17:4
15,19:2
15,20:2
15,21:2
15,22:1
15,24:2
15,25:1
15,26:1
16,1:4
16,2:1
16,4:2
16,7:2
16,8:2
16,9:1
16,11:4
16,12:1
16,13:4
16,14:4
16,17:4
16,19:2
16,20:2
17,2:3
17,4:2
17,5:4
17,6:4
17,7:2
17,8:2
17,9:5
17,10:4
17,12:3
17,15:4
17,16:4
17,18:4
17,20:2
17,21:2
17,22:5
17,23:3
17,24:2
17,25:5
17,26:5
17,27:3
17,28:6
17,29:6
17,30:6
18,1:4
18,2:1
18,4:2
18,7:2
18,8:2
18,9:1
18,11:4
18,12:1
18,13:4
18,14:4
18,19:2
18,20:2
18,21:2
18,22:1
18,23:1
18,24:2
18,25:1
18,26:1
18,27:1
18,28:2
18,29:2
18,30:2
19,1:6
19,2:3
19,4:4
19,5:2
19,6:2
19,7:4
19,8:4
19,9:1
19,10:2
19,11:6
19,12:3
19,13:6
19,14:6
19,15:2
19,16:2
19,20:4
19,21:4
19,22:1
19,23:3
19,24:4
19,25:1
19,26:1
19,27:3
20,1:2
20,5:2
20,6:2
20,9:3
20,10:2
20,11:2
20,15:2
20,17:2
20,18:2
20,19:4
21,1:2
21,5:2
21,6:2
21,9:3
21,10:2
21,11:2
21,15:2
21,17:2
21,18:2
21,19:4
21,22:3
21,25:3
21,26:3
22,1:5
22,4:3
22,5:1
22,6:1
22,7:3
22,8:3
22,10:1
22,11:5
22,17:5
22,18:1
22,19:1
22,23:2
22,24:3
23,1:3
23,4:1
23,5:1
23,6:1
23,7:1
23,8:1
23,9:2
23,10:1
23,11:3
23,17:3
23,18:1
23,19:3
23,24:1
23,25:2
23,26:2
24,1:2
24,5:2
24,6:2
24,9:3
24,11:2
24,15:2
24,17:2
24,18:2
24,19:4
24,22:3
24,23:1
24,25:3
25,1:5
25,4:3
25,5:1
25,6:1
25,7:3
25,8:3
25,11:5
25,15:1
25,17:5
25,18:1
25,19:1
25,21:3
25,23:2
26,11:5
26,15:1
26,17:5
26,18:1
26,19:1
26,21:3
26,23:2
26,27:2
27,11:3
27,17:3
27,18:1
27,19:3
27,28:3
27,29:3
28,11:6
28,17:6
28,18:2
29,11:6
29,17:6
29,18:2
30,11:6
30,17:6
30,18:2

<setup times backward>
1,2:3
1,3:3
1,10:4
1,12:3
1,15:4
1,16:4
1,18:4
1,19:6
1,20:2
1,21:2
1,22:5
1,23:3
1,24:2
1,25:5
2,5:1
2,6:1
2,9:2
2,10:1
2,16:1
2,18:1
2,19:3
3,5:1
3,6:1
3,9:2
3,10:1
3,15:1
4,2:1
4,3:1
4,5:2
4,6:2
4,10:2
4,12:1
4,15:2
4,16:2
4,18:2
4,19:4
4,22:3
4,23:1
4,25:3
5,19:2
5,22:1
5,25:1
6,19:2
6,22:1
6,25:1
7,2:1
7,3:1
7,5:2
7,6:2
7,10:2
7,12:1
7,15:2
7,16:2
7,18:2
7,19:4
7,22:3
7,23:1
7,25:3
8,2:1
8,3:1
8,5:2
8,6:2
8,10:2
8,12:1
8,15:2
8,16:2
8,18:2
8,19:4
8,22:3
8,23:1
8,25:3
9,19:1
10,9:1
10,19:2
10,22:1
11,2:3
11,3:3
11,4:2
11,5:4
11,6:4
11,7:2
11,8:2
11,9:5
11,10:4
11,12:3
11,15:4
11,16:4
11,18:4
11,19:6
11,20:2
11,21:2
11,22:5
11,23:3
11,24:2
11,25:5
11,26:5
11,27:3
11,28:6
11,29:6
11,30:6
12,5:1
12,6:1
12,9:2
12,10:1
12,16:1
12,18:1
12,19:3
13,2:3
13,3:3
13,4:2
13,5:4
13,6:4
13,7:2
13,8:2
13,9:5
13,10:4
13,12:3
13,16:4
13,18:4
13,19:6
14,2:3
14,3:3
14,4:2
14,5:4
14,6:4
14,7:2
14,8:2
14,9:5
14,10:4
14,12:3
14,16:4
14,18:4
14,19:6
15,9:1
15,19:2
15,25:1
15,26:1
16,9:1
16,19:2
17,2:3
17,3:3
17,4:2
17,5:4
17,6:4
17,7:2
17,8:2
17,9:5
17,10:4
17,12:3
17,15:4
17,16:4
17,20:2
17,21:2
17,22:5
17,23:3
17,24:2
17,25:5
17,26:5
17,27:3
17,28:6
17,29:6
17,30:6
18,9:1
18,22:1
18,25:1
18,26:1
18,28:2
18,29:2
18,30:2
20,2:1
20,3:1
20,5:2
20,6:2
20,9:3
20,10:2
20,12:1
20,15:2
20,16:2
20,18:2
20,19:4
21,2:1
21,3:1
21,5:2
21,6:2
21,9:3
21,10:2
21,12:1
21,15:2
21,16:2
21,18:2
21,19:4
21,25:3
21,26:3
22,19:1
23,5:1
23,6:1
23,9:2
23,10:1
23,15:1
23,16:1
23,18:1
23,19:3
23,22:2
23,25:2
23,26:2
24,2:1
24,3:1
24,5:2
24,6:2
24,9:3
24,10:2
24,12:1
24,15:2
24,16:2
24,18:2
24,19:4
24,22:3
24,23:1
25,19:1
26,19:1
27,5:1
27,6:1
27,9:2
27,10:1
27,15:1
27,16:1
27,18:1
27,19:3
27,22:2
27,25:2
27,26:2

<end>

<optimal SALBP-1 value>
8


<rand seed>
467321153

<Lower Bounds>
Lm1=8
Lms1=8
Lm2=2
Lm3=6
Lm4=8
Best=8

<Optimal Stations (Iterations: 10)>
10
